! B97-D3 def2-SVP TightSCF SP

* xyz 0 1
C 1.342592 2.553212 -0.498796
C 2.488373 3.514977 -0.223234
H 0.212510 3.182784 1.063637
H -0.077509 3.990713 -0.301673
C 1.667597 1.176253 0.071644
O 3.649208 3.133386 -0.777819
H 4.312211 3.798196 -0.520202
O 2.410067 4.517524 0.444415
C 0.569880 0.166625 -0.229070
N 0.085547 3.054187 0.061468
H 1.222566 2.491396 -1.585260
H 2.612224 0.820403 -0.346811
H 1.809975 1.245431 1.152884
C 0.938881 -1.218803 0.256426
H 0.393063 0.118205 -1.305890
H -0.361562 0.468379 0.253613
O 1.994325 -1.511379 0.777117
N -0.018192 -2.154725 0.031591
H -0.930480 -1.922784 -0.316093
H 0.152993 -3.089976 0.360930
*
