! B97-D3 def2-SVP TightSCF SP

* xyz 0 1
C 1.341381 2.563704 -0.476810
C 2.496067 3.519819 -0.193775
H 0.206691 3.097328 1.115706
H -0.138187 3.941150 -0.234828
C 1.701293 1.168797 0.052736
O 3.603961 3.202322 -0.868416
H 4.324058 3.817273 -0.653106
O 2.426790 4.466829 0.546084
C 0.610144 0.158749 -0.283688
N 0.093940 3.015079 0.109203
H 1.212858 2.511610 -1.565176
H 2.649032 0.844728 -0.376382
H 1.821186 1.214207 1.136988
C 0.918125 -1.206474 0.306466
H 0.514570 0.057058 -1.367206
H -0.345715 0.516781 0.102647
O 1.917177 -1.470342 0.933924
N -0.043976 -2.130065 0.058290
H -0.899303 -1.899386 -0.413358
H 0.064178 -3.055164 0.439581
*
