! B97-D3 def2-SVP TightSCF SP

* xyz 0 1
C 1.349307 2.554334 -0.473550
C 2.497375 3.506059 -0.193934
H 0.199293 3.125930 1.088358
H -0.108277 3.951640 -0.275007
C 1.688539 1.171053 0.080763
O 3.630060 3.162428 -0.819043
H 4.317948 3.814400 -0.615002
O 2.398000 4.512015 0.450057
C 0.591549 0.170119 -0.247272
N 0.093830 3.023924 0.082987
H 1.231360 2.493827 -1.562627
H 2.635093 0.826614 -0.334506
H 1.804485 1.230990 1.163432
C 0.931791 -1.215120 0.271605
H 0.451431 0.112163 -1.327803
H -0.350849 0.499177 0.190682
O 1.958643 -1.501243 0.835332
N -0.031649 -2.137620 0.033261
H -0.920018 -1.897428 -0.363037
H 0.106358 -3.069260 0.384178
*
