! MP2 def2-SVP TightSCF SP

* xyz 0 1
C 1.340607 2.564273 -0.477164
C 2.495209 3.520700 -0.203238
H 0.199845 3.110469 1.106230
H -0.135410 3.946941 -0.251202
C 1.695828 1.172705 0.063293
O 3.614921 3.179424 -0.848913
H 4.332383 3.796783 -0.634114
O 2.421062 4.482168 0.515393
C 0.601465 0.164263 -0.266957
N 0.091198 3.021950 0.099662
H 1.213046 2.504834 -1.566018
H 2.642503 0.840734 -0.361741
H 1.814234 1.226130 1.147209
C 0.923632 -1.208479 0.299219
H 0.487387 0.077486 -1.349927
H -0.349376 0.513404 0.138495
O 1.937992 -1.480092 0.896343
N -0.035380 -2.134479 0.047606
H -0.903720 -1.900877 -0.397984
H 0.086844 -3.064333 0.412685
*
