! MP2 def2-SVP TightSCF SP

* xyz 0 1
C 1.338798 2.565871 -0.477909
C 2.491493 3.522201 -0.211353
H 0.193907 3.109367 1.100754
H -0.140890 3.943183 -0.259421
C 1.696434 1.176484 0.065517
O 3.619463 3.165078 -0.834852
H 4.338616 3.777089 -0.616352
O 2.415515 4.481567 0.504496
C 0.600922 0.169339 -0.262675
N 0.088338 3.020165 0.094127
H 1.210591 2.503116 -1.567187
H 2.642301 0.842695 -0.358750
H 1.812940 1.232726 1.148931
C 0.931770 -1.208913 0.287570
H 0.476163 0.093061 -1.344752
H -0.346839 0.513448 0.152834
O 1.949943 -1.482555 0.872654
N -0.031608 -2.132333 0.046439
H -0.907665 -1.895634 -0.381570
H 0.094077 -3.061951 0.410375
*
