! MP2 def2-SVP TightSCF Opt

* xyz 0 1
C 1.352245 2.551543 -0.508345
C 2.500186 3.525505 -0.209637
H 0.220334 3.228091 1.053994
H -0.041444 4.032050 -0.313740
C 1.656066 1.166340 0.070360
O 3.670897 3.155994 -0.763354
H 4.298705 3.859458 -0.495663
O 2.416367 4.567322 0.424109
C 0.555661 0.145551 -0.222894
N 0.085705 3.083794 0.049631
H 1.240621 2.497379 -1.597376
H 2.604812 0.801261 -0.344813
H 1.815323 1.235450 1.155070
C 0.936395 -1.242997 0.240354
H 0.362030 0.102773 -1.300905
H -0.374092 0.426501 0.284783
O 2.007709 -1.542699 0.751206
N -0.029393 -2.183762 0.030991
H -0.958918 -1.951203 -0.289016
H 0.155060 -3.124346 0.354121
*
