! xtb goat

* xyzfile 0 1 c-input-coordinates.xyz
