! xtb goat

* xyzfile 0 1 a-input-coordinates.xyz
