! xtb goat

* xyzfile 0 1 m-input-coordinates.xyz
