! xtb goat

* xyzfile 0 1 p-input-coordinates.xyz
