! xtb goat

* xyzfile 0 1 r-input-coordinates.xyz
