! xtb goat

* xyzfile 0 1 s-input-coordinates.xyz
