! xtb goat

* xyzfile 0 1 t-input-coordinates.xyz
