! B97-D 6-31G** opt

* xyzfile 0 1 /home/vivek/mm-project/vivek/xtb-goat/xtb-goat/f/F_CONF/0.xyz
