! MP2 def2-SVP TightSCF Opt

* xyz 0 1
C -0.991817 0.068179 0.121370
C -0.252058 1.366692 0.395653
C 0.023085 -1.037696 -0.206763
C -0.638431 -2.388442 -0.418169
S -1.596653 -2.898672 1.058982
C -2.190404 -4.400768 0.534953
N -1.951386 0.230780 -0.956716
O -1.051116 2.439097 0.316454
O 0.907365 1.448076 0.691813
H -0.555461 3.248661 0.514094
H -2.398538 1.137503 -0.898534
H -2.672043 -0.478747 -0.895391
H 0.553491 -0.760426 -1.118359
H 0.742374 -1.092060 0.610217
H 0.112235 -3.158658 -0.592793
H -1.329828 -2.355816 -1.259288
H -1.658657 -4.922816 -0.233035
H -2.777266 -4.942765 1.245571
H -1.469682 -0.188801 1.089455
*
