! B97-D3 def2-SVP TightSCF SP

* xyz 0 1
C -0.994360 0.071581 0.117199
C -0.249765 1.368079 0.396523
C 0.016976 -1.035324 -0.216287
C -0.639179 -2.389330 -0.418536
S -1.582417 -2.909088 1.066419
C -2.180146 -4.412074 0.535356
N -1.953997 0.240710 -0.960616
O -1.048109 2.440717 0.323781
O 0.908651 1.448485 0.702715
H -0.548230 3.246723 0.529080
H -2.396791 1.150013 -0.899514
H -2.679514 -0.464203 -0.899280
H 0.539083 -0.760259 -1.134098
H 0.746322 -1.085203 0.592795
H 0.115625 -3.154798 -0.598440
H -1.336602 -2.364513 -1.255294
H -1.609663 -4.968519 -0.183067
H -2.828138 -4.923487 1.218321
H -1.474534 -0.186187 1.082459
*
