! B97-D3 def2-SVP TightSCF SP

* xyz 0 1
C -0.997865 0.086461 0.172965
C -0.245385 1.389831 0.364109
C -0.006906 -1.032041 -0.130626
C -0.652553 -2.384666 -0.373649
S -1.596303 -2.953440 1.077671
C -2.110500 -4.484524 0.522617
N -1.977471 0.220230 -0.914711
O -1.016943 2.476625 0.164162
O 0.909299 1.503833 0.686362
H -0.434850 3.242912 0.309363
H -2.430406 1.125542 -0.825486
H -2.704023 -0.478484 -0.789843
H 0.572195 -0.764417 -1.018528
H 0.704396 -1.107999 0.696463
H 0.125016 -3.121629 -0.583937
H -1.325309 -2.342920 -1.232085
H -1.789739 -4.866509 -0.423781
H -2.710583 -5.090979 1.166368
H -1.506858 -0.104503 1.132083
*
