! MP2 def2-SVP TightSCF SP

* xyz 0 1
C -0.991263 0.063518 0.137330
C -0.259293 1.362950 0.407114
C 0.028196 -1.036725 -0.188740
C -0.634766 -2.384232 -0.411986
S -1.598284 -2.894877 1.059391
C -2.183609 -4.395376 0.534523
N -1.951584 0.218342 -0.942888
O -1.051035 2.438118 0.291141
O 0.904787 1.448829 0.669311
H -0.548216 3.248619 0.460019
H -2.408706 1.119088 -0.882871
H -2.664261 -0.499066 -0.881741
H 0.566167 -0.754950 -1.093878
H 0.739749 -1.096607 0.634315
H 0.114642 -3.154590 -0.590243
H -1.323874 -2.342779 -1.254222
H -1.716164 -4.875348 -0.296044
H -2.747789 -4.959260 1.242320
H -1.469482 -0.192330 1.106664
*
