! MP2 def2-SVP TightSCF SP

* xyz 0 1
C -1.006534 0.113921 0.179241
C -0.226297 1.429011 0.347383
C -0.033979 -1.036462 -0.113924
C -0.667859 -2.406052 -0.357081
S -1.611124 -3.006392 1.081115
C -2.087027 -4.561749 0.513722
N -2.001542 0.253238 -0.909785
O -0.990281 2.525196 0.116965
O 0.931571 1.559904 0.711131
H -0.368134 3.268687 0.261877
H -2.437666 1.175199 -0.804007
H -2.749229 -0.422867 -0.752975
H 0.566209 -0.782122 -0.999125
H 0.687988 -1.116137 0.710691
H 0.128756 -3.126773 -0.570827
H -1.323954 -2.379354 -1.232920
H -1.767677 -4.935077 -0.452370
H -2.703697 -5.192960 1.144417
H -1.534310 -0.045889 1.125986
*
