! MP2 def2-SVP TightSCF SP

* xyz 0 1
C -0.987487 0.070301 0.142475
C -0.250408 1.371645 0.362595
C 0.020120 -1.035697 -0.169886
C -0.638995 -2.382999 -0.396602
S -1.590483 -2.908088 1.071374
C -2.147489 -4.422132 0.543931
N -1.958162 0.207544 -0.939355
O -1.046042 2.447242 0.246204
O 0.894834 1.468972 0.695896
H -0.518689 3.239674 0.430676
H -2.414582 1.109106 -0.870947
H -2.674693 -0.503345 -0.843974
H 0.575166 -0.763333 -1.068426
H 0.730353 -1.100767 0.655539
H 0.119665 -3.141632 -0.589461
H -1.324462 -2.340654 -1.242638
H -1.781159 -4.846655 -0.362444
H -2.727028 -5.003578 1.222061
H -1.475247 -0.152279 1.112498
*
