! xtb goat

* xyzfile 0 1 n-input-coordinates.xyz
