! xtb goat

* xyzfile 0 1 q-input-coordinates.xyz
