! xtb goat

* xyzfile 0 1 v-input-coordinates.xyz
