! xtb goat

* xyzfile 0 1 w-input-coordinates.xyz
