! xtb goat

* xyzfile 0 1 y-input-coordinates.xyz
