! xtb goat

%pal
  nprocs=9
end

* xyzfile 0 1 c-input-coordinates.xyz
