! xtb goat

* xyzfile 0 1 l-input-coordinates.xyz
