! MP2 6-31G** opt

* xyzfile 0 1 /home/vivek/mm-project/vivek/xtb-goat/xtb-goat/h/H_CONF/4.xyz
