! MP2 def2-SVP TightSCF Opt

* xyz 0 1
C 0.456587 1.747281 -0.392981
C 1.625456 2.698400 -0.260527
H -1.567104 1.869641 -0.535197
H -0.866411 3.198892 0.120325
C 0.430196 0.848955 0.867862
O 1.323466 3.842106 0.383935
H 2.145103 4.363026 0.397530
N -0.777983 2.501951 -0.613589
O 2.751838 2.478694 -0.630300
C 0.301589 -0.601059 0.529169
H 0.629045 1.151226 -1.294286
H 1.341904 0.988285 1.458236
H -0.399034 1.143540 1.518053
C 1.334956 -1.477011 0.322001
C -0.903154 -1.340578 0.336872
C -1.464737 -3.657830 -0.240642
H 1.379695 -3.531992 -0.188695
C -0.532451 -2.660316 0.013948
C -2.262771 -1.024666 0.406056
N 0.833207 -2.711127 0.012316
H 2.394369 -1.319566 0.362917
C -2.801085 -3.311820 -0.167516
H -2.589914 -0.026734 0.660662
H -4.245267 -1.771994 0.204592
H -1.163044 -4.664385 -0.488096
C -3.194080 -2.012731 0.152536
H -3.552561 -4.063034 -0.361071
*
