! MP2 def2-SVP TightSCF SP

* xyz 0 1
C 0.445679 1.760157 -0.395618
C 1.642814 2.704288 -0.283429
H -1.604123 1.922312 -0.442779
H -0.843915 3.236226 0.184492
C 0.420774 0.859937 0.853685
O 1.369096 3.851048 0.383040
H 2.218430 4.339026 0.355723
N -0.806467 2.542165 -0.564711
O 2.781712 2.475504 -0.660114
C 0.301107 -0.594984 0.514142
H 0.584984 1.182779 -1.317025
H 1.329531 0.997225 1.455344
H -0.407566 1.139540 1.518561
C 1.354674 -1.468688 0.325529
C -0.902315 -1.347507 0.320492
C -1.461693 -3.675541 -0.225050
H 1.389913 -3.531556 -0.153390
C -0.531035 -2.659305 0.023577
C -2.277142 -1.038986 0.372664
N 0.842719 -2.702633 0.032137
H 2.425322 -1.315511 0.373764
C -2.817249 -3.341894 -0.171767
H -2.611253 -0.034784 0.611846
H -4.280560 -1.803453 0.161485
H -1.148964 -4.687897 -0.457365
C -3.220925 -2.042657 0.121943
H -3.565734 -4.107660 -0.363065
*
