! MP2 def2-SVP TightSCF Opt

* xyz 0 1
C 0.549283 1.705408 -0.404001
C 1.595000 2.770990 -0.170137
H -1.424483 1.582531 -0.842419
H -1.001198 2.977735 -0.071325
C 0.522107 0.810471 0.881627
O 1.101276 3.863263 0.427765
H 1.801235 4.519866 0.558687
N -0.712767 2.301484 -0.769728
O 2.751948 2.667774 -0.465227
C 0.351193 -0.628772 0.540858
H 0.883687 1.089040 -1.246764
H 1.450597 0.945869 1.439503
H -0.300074 1.149806 1.515124
C 1.340615 -1.525208 0.275943
C -0.884389 -1.323864 0.364453
C -1.525186 -3.609621 -0.257270
H 1.334521 -3.565817 -0.288933
C -0.550324 -2.654738 -0.007908
C -2.225306 -0.968319 0.488983
N 0.809435 -2.743010 -0.051453
H 2.402865 -1.378575 0.292194
C -2.839140 -3.223679 -0.131301
H -2.510486 0.031468 0.782976
H -4.226416 -1.659094 0.330710
H -1.260360 -4.617602 -0.538920
C -3.182473 -1.919359 0.239561
H -3.623347 -3.940895 -0.318890
*
