! MP2 def2-SVP TightSCF SP

* xyz 0 1
C 0.752147 1.641496 -0.428656
C 1.427597 2.941180 -0.026098
H -0.979961 0.999267 -1.270353
H -1.141925 2.395117 -0.398780
C 0.736351 0.745903 0.867254
O 0.561750 3.808290 0.499447
H 0.982007 4.632035 0.791528
N -0.535071 1.874692 -1.020805
O 2.610606 3.144241 -0.090304
C 0.466517 -0.672372 0.516651
H 1.390635 1.133321 -1.160526
H 1.702075 0.845259 1.364041
H -0.039860 1.144632 1.524151
C 1.379029 -1.624870 0.171616
C -0.825369 -1.279503 0.386095
C -1.656779 -3.493077 -0.255690
H 1.206226 -3.642228 -0.437283
C -0.599563 -2.616163 -0.036644
C -2.131883 -0.836522 0.595874
N 0.747180 -2.793358 -0.155105
H 2.450282 -1.540182 0.146488
C -2.936378 -3.025857 -0.050100
H -2.323447 0.172649 0.932322
H -4.191694 -1.394781 0.525536
H -1.471635 -4.508899 -0.576625
C -3.170021 -1.713484 0.372663
H -3.781002 -3.679633 -0.212589
*
