! MP2 def2-SVP TightSCF SP

* xyz 0 1
C 0.491497 1.729310 -0.404519
C 1.610028 2.727486 -0.232667
H -1.514405 1.748320 -0.686378
H -0.930412 3.113840 0.021446
C 0.467046 0.834636 0.871806
O 1.232423 3.842132 0.413497
H 2.006879 4.418398 0.504006
N -0.751779 2.417130 -0.694360
O 2.752238 2.538640 -0.545527
C 0.321068 -0.610926 0.535457
H 0.732974 1.114628 -1.278390
H 1.386878 0.975451 1.445129
H -0.360231 1.151206 1.511378
C 1.333121 -1.493913 0.299530
C -0.896367 -1.331327 0.350987
C -1.487546 -3.636494 -0.247407
H 1.363415 -3.542651 -0.236952
C -0.538061 -2.658247 0.004035
C -2.246038 -0.999261 0.446819
N 0.824066 -2.723516 -0.018147
H 2.392242 -1.337009 0.326632
C -2.811366 -3.272970 -0.147995
H -2.556257 -0.001303 0.719697
H -4.231391 -1.723347 0.267972
H -1.201824 -4.643041 -0.510768
C -3.183655 -1.970935 0.196764
H -3.576730 -4.009083 -0.337936
*
