! MP2 def2-SVP TightSCF SP

* xyz 0 1
C 0.637978 1.675259 -0.423406
C 1.539236 2.852675 -0.109930
H -1.252149 1.320284 -1.063276
H -1.087833 2.738235 -0.229940
C 0.612957 0.783074 0.873358
O 0.875707 3.855650 0.471755
H 1.457529 4.596268 0.698592
N -0.645803 2.115087 -0.895528
O 2.725603 2.868371 -0.288710
C 0.401240 -0.648305 0.531785
H 1.112830 1.085213 -1.216502
H 1.556815 0.907943 1.405309
H -0.193622 1.153861 1.509106
C 1.357337 -1.568503 0.229569
C -0.860723 -1.306137 0.376969
C -1.583537 -3.562642 -0.257045
H 1.283249 -3.599575 -0.359113
C -0.570695 -2.641206 -0.021307
C -2.187856 -0.913584 0.543469
N 0.784599 -2.766695 -0.099749
H 2.424360 -1.444374 0.226710
C -2.883407 -3.142381 -0.092524
H -2.432455 0.090495 0.860095
H -4.216010 -1.551190 0.426163
H -1.352277 -4.574291 -0.558234
C -3.179954 -1.834090 0.305228
H -3.695305 -3.832288 -0.268733
*
