! MP2 6-31G** opt

* xyzfile 0 1 /home/vivek/mm-project/vivek/xtb-goat/xtb-goat/g/G_CONF/3.xyz
