! xtb goat

%pal
  nprocs=9
end

* xyzfile 0 1 f-input-coordinates.xyz
