! B97-D 6-31G** opt

* xyzfile 0 1 /home/vivek/mm-project/vivek/xtb-goat/xtb-goat/i/I_CONF/1.xyz
