! MP2 def2-SVP TightSCF SP

* xyz 0 1
C -1.166548 1.917481 -0.700027
C -1.272846 3.426705 -0.350847
H -3.303567 3.594473 -0.355667
H -2.556786 4.638391 0.674173
C -0.108069 3.873879 0.510517
C -1.214403 1.064997 0.565953
O 0.980828 3.358163 0.525680
N -2.540616 3.695211 0.303679
O -0.386326 4.958977 1.238167
H 0.390002 5.218818 1.759793
H -1.137253 3.986696 -1.300417
H -2.110628 1.302052 1.130368
O -0.033501 1.664189 -1.484523
H -1.221512 0.012895 0.293278
H -0.341586 1.259375 1.184723
H -2.021733 1.664410 -1.338842
H 0.744467 1.880693 -0.948631
*
