! MP2 def2-SVP TightSCF Opt

* xyz 0 1
C -1.183043 1.923099 -0.671855
C -1.297422 3.428318 -0.339160
H -3.330349 3.721679 -0.375996
H -2.529848 4.724172 0.639684
C -0.121217 3.902344 0.523742
C -1.205538 0.993173 0.538172
O 0.988876 3.394324 0.585138
N -2.585707 3.753511 0.318875
O -0.380047 5.051846 1.191214
H 0.450520 5.235973 1.677837
H -1.223972 4.005932 -1.269421
H -2.121291 1.112832 1.124216
O -0.008489 1.659986 -1.446777
H -1.142815 -0.050248 0.209477
H -0.344987 1.159418 1.193607
H -2.028410 1.653173 -1.316663
H 0.763662 1.847873 -0.874713
*
