! MP2 def2-SVP TightSCF SP

* xyz 0 1
C -1.166046 1.923127 -0.695531
C -1.270710 3.420891 -0.339817
H -3.294866 3.612809 -0.349850
H -2.539919 4.618559 0.703584
C -0.120228 3.865827 0.529527
C -1.224961 1.053695 0.553153
O 0.969383 3.364155 0.545592
N -2.539177 3.681425 0.321384
O -0.376113 4.995497 1.196249
H 0.414874 5.251507 1.694204
H -1.148247 3.995846 -1.282272
H -2.135925 1.254437 1.104771
O -0.023664 1.677582 -1.470037
H -1.202451 0.008443 0.262470
H -0.372553 1.250689 1.196616
H -2.011212 1.672815 -1.347575
H 0.741738 1.870100 -0.915091
*
