! MP2 def2-SVP TightSCF SP

* xyz 0 1
C -1.182693 1.925987 -0.682035
C -1.285966 3.424182 -0.353294
H -3.308904 3.681757 -0.384586
H -2.528461 4.682892 0.644763
C -0.126759 3.875889 0.512987
C -1.192741 1.043048 0.557076
O 0.948697 3.333040 0.597134
N -2.563029 3.727531 0.302104
O -0.386694 4.997055 1.207616
H 0.415466 5.187654 1.724654
H -1.179829 3.994226 -1.292705
H -2.096171 1.199336 1.140756
O -0.038587 1.671492 -1.474303
H -1.144162 -0.002899 0.259619
H -0.328419 1.241872 1.189582
H -2.037542 1.655058 -1.312210
H 0.735719 1.879285 -0.929781
*
