! B97-D3 def2-SVP TightSCF Opt

* xyz 0 1
C -1.165996 1.917179 -0.698891
C -1.273921 3.427542 -0.350703
H -3.304422 3.586137 -0.356555
H -2.561945 4.644311 0.662096
C -0.106931 3.873938 0.509813
C -1.214735 1.064956 0.567776
O 0.989208 3.371904 0.503934
N -2.540999 3.698125 0.300148
O -0.389690 4.946934 1.251556
H 0.387525 5.211563 1.769895
H -1.135597 3.985301 -1.300753
H -2.104580 1.314473 1.137349
O -0.031931 1.663004 -1.481051
H -1.236043 0.012530 0.297569
H -0.334796 1.249590 1.179391
H -2.021293 1.665015 -1.337349
H 0.746071 1.884903 -0.946846
*
