! MP2 def2-SVP TightSCF SP

* xyz 0 1
C -1.162198 1.918921 -0.703090
C -1.267854 3.427171 -0.354758
H -3.298357 3.581467 -0.340036
H -2.549614 4.623120 0.690725
C -0.102227 3.883690 0.495349
C -1.222243 1.072051 0.565110
O 0.980770 3.363866 0.518616
N -2.530334 3.683586 0.313003
O -0.385857 4.957951 1.235369
H 0.385991 5.216447 1.761763
H -1.143278 3.986580 -1.308113
H -2.125561 1.307466 1.116967
O -0.028815 1.664599 -1.482851
H -1.222517 0.020554 0.293783
H -0.359251 1.273289 1.193495
H -2.013782 1.666464 -1.347310
H 0.745051 1.870181 -0.940643
*
