! xtb goat

* xyzfile 0 1 k-input-coordinates.xyz
