! B97-D3 def2-SVP TightSCF Opt

* xyz 0 1
C -1.923877 3.026520 -0.358095
C -0.529616 3.508552 0.043995
H -3.036878 3.019865 1.319862
H -2.867238 4.511513 0.659339
O -0.567165 4.487430 0.956059
C -1.925824 1.492757 -0.339406
H 0.332763 4.763627 1.189129
N -3.016934 3.532189 0.443325
O 0.496586 3.083443 -0.411519
O -1.761853 1.087969 1.003091
H -2.072182 3.359579 -1.397599
H -2.879260 1.132338 -0.744007
H -1.099966 1.132154 -0.964969
H -1.756077 0.126857 1.042964
*
