! MP2 def2-SVP TightSCF SP

* xyz 0 1
C -1.922723 3.017590 -0.380016
C -0.550856 3.553265 0.040589
H -2.973073 2.980908 1.351114
H -2.716764 4.479393 0.796335
O -0.616956 4.608074 0.887636
C -1.905792 1.484173 -0.343834
H 0.322951 4.833424 1.050634
N -3.007030 3.544355 0.494318
O 0.535660 3.162664 -0.358211
O -1.905551 1.018285 1.011077
H -2.098061 3.374553 -1.400474
H -2.802361 1.086299 -0.831052
H -1.023897 1.075380 -0.847039
H -1.943069 0.046431 0.971093
*
