! MP2 def2-SVP TightSCF Opt

* xyz 0 1
C -1.915676 3.018819 -0.346869
C -0.531678 3.498923 0.068369
H -3.049625 2.967576 1.305660
H -2.808380 4.476014 0.729087
O -0.569632 4.535505 0.917171
C -1.921852 1.495996 -0.342739
H 0.336230 4.816558 1.109166
N -3.007540 3.520948 0.455762
O 0.494923 3.092534 -0.389755
O -1.810534 1.082065 1.005226
H -2.067377 3.365902 -1.380132
H -2.859238 1.135764 -0.786206
H -1.070719 1.132770 -0.932767
H -1.826426 0.125420 1.030196
*
