! MP2 def2-SVP TightSCF SP

* xyz 0 1
C -1.925878 3.026842 -0.363557
C -0.530348 3.504198 0.046531
H -3.016599 3.059123 1.329526
H -2.896893 4.527327 0.607610
O -0.570881 4.452005 0.988071
C -1.930044 1.491625 -0.335129
H 0.327006 4.731603 1.227923
N -3.019448 3.536092 0.433297
O 0.496263 3.110325 -0.439479
O -1.738337 1.087491 1.003220
H -2.065701 3.352658 -1.404789
H -2.894147 1.133909 -0.716129
H -1.120723 1.125915 -0.978335
H -1.721792 0.125679 1.043409
*
