! MP2 def2-SVP TightSCF SP

* xyz 0 1
C -1.923765 3.027134 -0.356520
C -0.530871 3.511345 0.038578
H -3.049292 2.997399 1.308907
H -2.852510 4.500985 0.681676
O -0.565190 4.498897 0.941819
C -1.924783 1.496284 -0.341924
H 0.334117 4.768031 1.179094
N -3.014704 3.528794 0.444204
O 0.491268 3.060262 -0.391691
O -1.762399 1.099384 1.002255
H -2.078616 3.361983 -1.395817
H -2.876005 1.133994 -0.751042
H -1.094417 1.139848 -0.964934
H -1.760355 0.140453 1.047565
*
