! MP2 def2-SVP TightSCF SP

* xyz 0 1
C -1.924980 3.019906 -0.371199
C -0.550965 3.540270 0.032781
H -3.001013 2.975480 1.326293
H -2.755943 4.474792 0.759621
O -0.597924 4.566649 0.903904
C -1.910752 1.496970 -0.344622
H 0.328150 4.797242 1.093254
N -3.007635 3.531844 0.472768
O 0.506822 3.108808 -0.353918
O -1.847892 1.062460 1.010791
H -2.101043 3.368065 -1.394931
H -2.827980 1.109827 -0.805957
H -1.042116 1.111975 -0.891118
H -1.874251 0.100506 1.004504
*
