! xtb goat

* xyzfile 0 1 g-input-coordinates.xyz
