! B97-D3 def2-SVP TightSCF Opt

* xyz 0 1
C -0.055921 -0.088395 0.559802
C 1.184611 0.802644 0.455652
H -0.227315 -0.329363 1.619796
H -1.910279 0.036364 -0.317614
C 0.178679 -1.384310 -0.226596
H -1.564230 1.298729 0.653964
O 1.058204 1.792244 -0.406916
N -1.168906 0.665237 -0.032625
H 0.136154 1.747361 -0.756789
C 1.227681 -2.316865 0.411364
O 2.208037 0.577958 1.035732
H 0.473025 -1.132752 -1.246591
H -0.776029 -1.910035 -0.291312
C 2.449131 -2.490520 -0.486209
H 1.542422 -1.940145 1.383305
H 0.796330 -3.307395 0.554018
O 2.519633 -3.354785 -1.331235
N 3.442566 -1.616451 -0.255179
H 3.332212 -0.834527 0.371287
H 4.250937 -1.643605 -0.853909
*
