! B97-D3 def2-SVP TightSCF SP

* xyz 0 1
C -0.014677 -0.085298 0.517819
C 1.221746 0.826796 0.425299
H -0.226245 -0.286750 1.573389
H -1.939206 0.000182 -0.215322
C 0.205849 -1.383660 -0.268217
H -1.542455 1.281601 0.685014
O 0.989142 1.903638 -0.367324
N -1.177168 0.664506 -0.050410
H 0.055149 1.804778 -0.685250
C 1.204326 -2.334153 0.401751
O 2.299106 0.603242 0.956839
H 0.514732 -1.153131 -1.296106
H -0.751406 -1.915464 -0.341219
C 2.446571 -2.526807 -0.438489
H 1.488253 -2.003099 1.406411
H 0.747804 -3.323823 0.524418
O 2.551431 -3.416231 -1.276040
N 3.441066 -1.623494 -0.232224
H 3.318896 -0.785566 0.336778
H 4.264028 -1.675880 -0.817174
*
