! B97-D3 def2-SVP TightSCF Opt

* xyz 0 1
C -0.031047 -0.090028 0.536980
C 1.204736 0.806015 0.432448
H -0.220699 -0.308662 1.596650
H -1.922123 0.028654 -0.254608
C 0.188607 -1.385556 -0.249204
H -1.538325 1.293317 0.679284
O 1.023309 1.846509 -0.383526
N -1.165756 0.670703 -0.036014
H 0.107297 1.754013 -0.742213
C 1.213957 -2.330000 0.401144
O 2.241260 0.601411 1.009952
H 0.487185 -1.144139 -1.271415
H -0.768413 -1.909991 -0.316142
C 2.446637 -2.503171 -0.466878
H 1.512340 -1.981017 1.390922
H 0.774330 -3.321925 0.529680
O 2.552695 -3.390976 -1.291699
N 3.433041 -1.612714 -0.242986
H 3.305179 -0.798064 0.343601
H 4.252732 -1.652990 -0.826030
*
