! B97-D3 def2-SVP TightSCF SP

* xyz 0 1
C -0.074786 -0.094402 0.577363
C 1.191500 0.767853 0.477420
H -0.243838 -0.344297 1.635140
H -1.893734 0.061253 -0.377109
C 0.158476 -1.396923 -0.206419
H -1.576319 1.308023 0.640994
O 1.113305 1.719665 -0.431644
N -1.161986 0.670401 -0.030794
H 0.205269 1.681350 -0.818389
C 1.235401 -2.302313 0.419152
O 2.175870 0.568956 1.141691
H 0.434202 -1.146112 -1.233921
H -0.791977 -1.933245 -0.248836
C 2.435192 -2.457452 -0.514946
H 1.568420 -1.894772 1.372501
H 0.825021 -3.298526 0.582149
O 2.478387 -3.300812 -1.383425
N 3.437032 -1.591958 -0.273405
H 3.341890 -0.841135 0.394095
H 4.239617 -1.604167 -0.881673
*
