! B97-D3 def2-SVP TightSCF Opt

* xyz 0 1
C -0.069147 -0.099450 0.571419
C 1.198753 0.759412 0.471704
H -0.239602 -0.347661 1.630481
H -1.887249 0.059873 -0.382531
C 0.162476 -1.403466 -0.207364
H -1.560384 1.312592 0.624549
O 1.115837 1.739289 -0.399755
N -1.151905 0.666922 -0.041497
H 0.210741 1.706135 -0.793461
C 1.234361 -2.311962 0.424470
O 2.165970 0.576555 1.158823
H 0.445367 -1.155437 -1.232767
H -0.790416 -1.934129 -0.253826
C 2.440263 -2.475099 -0.502345
H 1.563453 -1.901654 1.377265
H 0.819770 -3.305552 0.588027
O 2.492942 -3.331425 -1.355049
N 3.420988 -1.582019 -0.288229
H 3.306912 -0.812877 0.354006
H 4.217809 -1.588660 -0.903976
*
