! MP2 def2-SVP TightSCF SP

* xyz 0 1
C -0.078526 -0.094124 0.577415
C 1.191579 0.763224 0.481925
H -0.255223 -0.339495 1.634447
H -1.891000 0.058122 -0.389199
C 0.157074 -1.399689 -0.201980
H -1.581032 1.308169 0.626117
O 1.118881 1.714755 -0.430708
N -1.161648 0.668638 -0.040256
H 0.206951 1.689819 -0.806971
C 1.238866 -2.298366 0.425086
O 2.175414 0.557118 1.144740
H 0.427595 -1.152730 -1.231793
H -0.791340 -1.940248 -0.238736
C 2.433636 -2.453955 -0.513994
H 1.574356 -1.886492 1.375694
H 0.832262 -3.295150 0.594495
O 2.461142 -3.279399 -1.400802
N 3.441815 -1.594300 -0.275293
H 3.358060 -0.851121 0.401266
H 4.238079 -1.603387 -0.891507
*
