! MP2 def2-SVP TightSCF Opt

* xyz 0 1
N -1.142380 1.333369 -0.358239
C -0.087175 0.814383 0.488781
H -0.816009 1.391124 -1.318082
H -1.392945 2.270487 -0.064702
C 1.123401 1.729812 0.634773
H 2.155564 -5.266542 1.456732
C 0.367390 -0.569516 0.012852
H 3.192412 -5.440036 0.154499
O 0.861174 2.981618 0.219688
H -0.509482 0.717493 1.500783
C -0.785428 -1.565634 0.052461
H 0.747191 -0.478649 -1.007901
H 1.185827 -0.907936 0.647310
C -0.391817 -2.936050 -0.507543
H -1.109524 -1.693805 1.086532
H -1.620977 -1.165609 -0.520374
N 0.572334 -3.599214 0.349246
H -1.290999 -3.552823 -0.608495
H 0.051425 -2.813387 -1.499903
C 1.788922 -4.061834 -0.152777
H 0.160953 -4.220855 1.030587
N 2.487504 -3.535068 -1.063849
N 2.249400 -5.232977 0.451618
H 2.075443 -2.725105 -1.509529
H 1.646013 3.540434 0.319213
O 2.202597 1.398022 1.034488
*
