! B97-D3 def2-SVP TightSCF SP

* xyz 0 1
N -1.208032 1.317397 -0.348025
C -0.092919 0.850569 0.511944
H -0.886447 1.338540 -1.317670
H -1.357988 2.305796 -0.121913
C 1.089769 1.830785 0.442991
H 1.920111 -5.709743 1.041422
C 0.367093 -0.550747 0.089143
H 2.984339 -5.573694 -0.218015
O 0.740750 3.067298 0.017567
H -0.440316 0.836414 1.551624
C -0.743172 -1.608338 0.151766
H 0.770676 -0.508857 -0.929721
H 1.198981 -0.864836 0.735773
C -0.311898 -2.940722 -0.458415
H -1.057807 -1.746160 1.191160
H -1.622705 -1.259868 -0.409302
N 0.604073 -3.666029 0.419371
H -1.204165 -3.562730 -0.600410
H 0.120186 -2.782600 -1.452779
C 1.811342 -4.054753 -0.041712
H 0.111599 -4.443561 0.846526
N 2.697349 -3.310691 -0.591980
N 2.039369 -5.373087 0.096780
H 2.358368 -2.347320 -0.568731
H 1.584898 3.567134 0.039688
O 2.247361 1.601505 0.751085
*
