! B97-D3 def2-SVP TightSCF SP

* xyz 0 1
N -1.098704 1.355285 -0.392378
C -0.082995 0.793238 0.469418
H -0.750198 1.434570 -1.341852
H -1.371313 2.277892 -0.077106
C 1.154764 1.664287 0.688522
H 2.248569 -4.960807 1.562307
C 0.347343 -0.594308 -0.026593
H 3.286812 -5.254963 0.271629
O 0.943426 2.933392 0.305593
H -0.536554 0.675912 1.467448
C -0.820314 -1.573649 0.022253
H 0.709070 -0.495540 -1.052720
H 1.171707 -0.947473 0.590956
C -0.432510 -2.955499 -0.515363
H -1.145482 -1.688594 1.058226
H -1.648828 -1.169058 -0.557501
N 0.574024 -3.574487 0.317220
H -1.326932 -3.586370 -0.569994
H -0.025981 -2.854368 -1.525546
C 1.774514 -4.051886 -0.201310
H 0.218910 -4.116158 1.090721
N 2.390352 -3.664789 -1.232406
N 2.337905 -5.069367 0.562907
H 1.929969 -2.970884 -1.806094
H 1.708769 3.497667 0.492225
O 2.164493 1.307658 1.227603
*
