! B97-D3 def2-SVP TightSCF Opt

* xyz 0 1
N -1.170065 1.313162 -0.353740
C -0.085448 0.834311 0.489686
H -0.854239 1.344548 -1.319428
H -1.389061 2.269783 -0.093625
C 1.105675 1.780246 0.542483
H 2.075609 -5.516290 1.311662
C 0.379778 -0.551806 0.045530
H 3.107851 -5.568467 0.004568
O 0.790686 3.028616 0.148319
H -0.475783 0.773826 1.514523
C -0.758056 -1.563323 0.091892
H 0.774305 -0.483500 -0.971831
H 1.194553 -0.874837 0.694828
C -0.359746 -2.923758 -0.485604
H -1.077343 -1.694007 1.126373
H -1.605308 -1.174987 -0.473265
N 0.577381 -3.623739 0.382967
H -1.262218 -3.530949 -0.611152
H 0.094094 -2.787676 -1.471211
C 1.801780 -4.072682 -0.106399
H 0.122978 -4.308711 0.972330
N 2.573449 -3.440502 -0.890077
N 2.171099 -5.349136 0.318807
H 2.194771 -2.546693 -1.182835
H 1.584526 3.579646 0.226643
O 2.209547 1.498625 0.916724
*
