! B97-D3 def2-SVP TightSCF SP

* xyz 0 1
N -1.073332 1.372783 -0.406118
C -0.098630 0.781367 0.481920
H -0.688615 1.472063 -1.339349
H -1.353120 2.289710 -0.079785
C 1.145701 1.629653 0.751729
H 2.295537 -4.797981 1.590902
C 0.324073 -0.605960 -0.021486
H 3.338556 -5.140903 0.311870
O 1.000375 2.885654 0.305148
H -0.582659 0.658190 1.463749
C -0.846212 -1.582849 0.012647
H 0.692669 -0.504186 -1.044903
H 1.143098 -0.969393 0.598299
C -0.447964 -2.961805 -0.523644
H -1.186437 -1.697468 1.043992
H -1.667289 -1.178316 -0.578112
N 0.580866 -3.560614 0.294334
H -1.334524 -3.606458 -0.560899
H -0.064152 -2.861678 -1.542337
C 1.775530 -4.037061 -0.223812
H 0.250557 -4.063325 1.103869
N 2.353737 -3.723683 -1.302913
N 2.386429 -4.969531 0.600852
H 1.859960 -3.092304 -1.919877
H 1.782557 3.426574 0.494931
O 2.134104 1.249221 1.317158
*
