! MP2 def2-SVP TightSCF SP

* xyz 0 1
N -1.189855 1.311564 -0.350995
C -0.094737 0.847841 0.503967
H -0.865352 1.334334 -1.315500
H -1.375264 2.283929 -0.112399
C 1.085562 1.812353 0.495558
H 2.006837 -5.667422 1.170793
C 0.373215 -0.541246 0.078200
H 3.051713 -5.616131 -0.122705
O 0.754838 3.048521 0.069986
H -0.467845 0.815062 1.533209
C -0.748884 -1.572714 0.125677
H 0.780924 -0.488571 -0.935680
H 1.187954 -0.856586 0.735441
C -0.335158 -2.920411 -0.469322
H -1.069076 -1.707143 1.159538
H -1.608400 -1.200307 -0.437420
N 0.589103 -3.645073 0.404110
H -1.235571 -3.529100 -0.608406
H 0.111291 -2.771236 -1.456805
C 1.814768 -4.074086 -0.071171
H 0.106516 -4.378248 0.911335
N 2.649648 -3.372767 -0.736605
N 2.112557 -5.398243 0.199998
H 2.293728 -2.430704 -0.876581
H 1.574771 3.571340 0.110988
O 2.217531 1.556743 0.822954
*
