! xtb goat

%pal
  nprocs=9
end

* xyzfile 0 1 h-input-coordinates.xyz
