! B97-D 6-31G** opt

* xyzfile 0 1 /home/vivek/mm-project/vivek/xtb-goat/xtb-goat/g/G_CONF/4.xyz
