! MP2 def2-SVP TightSCF Opt

* xyz 0 1
N -0.627120 1.723451 -0.070572
C 0.514136 1.020057 0.485904
O 2.790233 1.057158 -0.325109
C -1.762938 0.843270 0.127235
C 1.823345 1.651790 0.065205
H -2.563294 1.127264 -0.558066
C 0.323641 -0.408229 -0.035667
H 0.809620 -0.494866 -1.006019
H 0.765188 -1.143545 0.632201
H 0.511532 1.017915 1.596084
O 1.806124 2.983010 0.207333
H 2.653989 3.357995 -0.080438
H -0.757261 2.642722 0.334961
C -1.202251 -0.558139 -0.167220
H -2.155837 0.882729 1.156854
H -1.471219 -0.879415 -1.170893
H -1.596529 -1.287738 0.538074
*
