! B97-D3 def2-SVP TightSCF Opt

* xyz 0 1
N -0.624260 1.725906 -0.068687
C 0.514946 1.017728 0.487574
O 2.792568 1.058000 -0.302108
C -1.761140 0.845304 0.126692
C 1.820972 1.651592 0.071420
H -2.558349 1.130503 -0.560942
C 0.326079 -0.408327 -0.039406
H 0.808569 -0.489692 -1.010630
H 0.771379 -1.146453 0.621912
H 0.507464 1.011880 1.598266
O 1.798614 2.985486 0.193769
H 2.648953 3.352875 -0.094348
H -0.753018 2.640955 0.345723
C -1.202661 -0.558514 -0.167000
H -2.157966 0.886176 1.155663
H -1.474675 -0.882142 -1.167907
H -1.596113 -1.285849 0.539875
*
