! MP2 def2-SVP TightSCF SP

* xyz 0 1
N -0.626883 1.739353 -0.058404
C 0.515173 1.015600 0.506268
O 2.817940 1.072916 -0.243548
C -1.762195 0.846476 0.118471
C 1.822136 1.654453 0.107356
H -2.567478 1.114581 -0.566415
C 0.328339 -0.392824 -0.049742
H 0.798119 -0.482231 -1.028539
H 0.772026 -1.149171 0.597893
H 0.476314 1.004456 1.608473
O 1.785469 2.998934 0.150621
H 2.656736 3.300032 -0.161688
H -0.756242 2.632335 0.405183
C -1.195822 -0.549245 -0.171274
H -2.154511 0.894897 1.147239
H -1.465864 -0.884666 -1.171920
H -1.581895 -1.280469 0.539892
*
