! MP2 def2-SVP TightSCF Opt

* xyz 0 1
N -0.626567 1.727886 -0.082638
C 0.514116 1.020587 0.471621
O 2.790421 1.064450 -0.283410
C -1.760739 0.845279 0.126753
C 1.806647 1.656718 0.043517
H -2.561595 1.123943 -0.556967
C 0.328104 -0.408154 -0.048222
H 0.800214 -0.493377 -1.021300
H 0.782776 -1.142775 0.609719
H 0.508564 1.024320 1.582117
O 1.799609 2.985520 0.207142
H 2.662853 3.339118 -0.054334
H -0.751650 2.640022 0.336117
C -1.204099 -0.563192 -0.160551
H -2.152186 0.896665 1.159330
H -1.484725 -0.897021 -1.153699
H -1.590382 -1.284560 0.554671
*
