! B97-D3 def2-SVP TightSCF Opt

* xyz 0 1
N -0.649689 1.740482 -0.071332
C 0.511823 1.023869 0.495227
O 2.860304 1.084940 -0.225759
C -1.776089 0.835856 0.113041
C 1.829895 1.665075 0.080605
H -2.601646 1.074380 -0.563724
C 0.318294 -0.376484 -0.061853
H 0.769295 -0.487011 -1.055907
H 0.765572 -1.137618 0.585686
H 0.462651 1.019137 1.591043
O 1.816897 3.015548 0.170404
H 2.712837 3.274777 -0.127948
H -0.782738 2.627827 0.411845
C -1.195159 -0.544767 -0.161572
H -2.148139 0.895443 1.142396
H -1.470352 -0.901501 -1.160891
H -1.562396 -1.274525 0.568606
*
