! MP2 def2-SVP TightSCF Opt

* xyz 0 1
N -0.629651 1.720433 -0.073917
C 0.513210 1.022934 0.483322
O 2.780644 1.058286 -0.361186
C -1.764145 0.840933 0.128543
C 1.823237 1.652392 0.054401
H -2.568963 1.124466 -0.551921
C 0.321717 -0.409438 -0.028679
H 0.815008 -0.504960 -0.994958
H 0.756598 -1.139487 0.649772
H 0.517888 1.028852 1.593119
O 1.815149 2.978612 0.227429
H 2.659170 3.362756 -0.060505
H -0.760813 2.644726 0.319811
C -1.201784 -0.558271 -0.169218
H -2.150961 0.878608 1.160293
H -1.465140 -0.873558 -1.176812
H -1.599804 -1.291857 0.530372
*
