! xtb goat

%pal
  nprocs=9
end

* xyzfile 0 1 k-input-coordinates.xyz
