! MP2 def2-SVP TightSCF SP

* xyz 0 1
C -1.076365 2.571103 -0.513766
C -0.838210 1.056792 -0.442779
H -0.683182 4.956985 1.594432
O 0.447529 3.018172 1.313426
C -0.511785 3.323941 0.666391
C 0.636464 0.691317 -0.581108
N -2.511497 2.822344 -0.616064
H -2.701657 3.804880 -0.467113
H -2.837901 2.572160 -1.541854
O -1.119834 4.507764 0.855083
H -0.523916 2.971425 -1.390940
H 1.075539 1.176438 -1.449175
H 0.743775 -0.382907 -0.700661
H 1.192361 1.001658 0.294910
C -1.427847 0.491313 0.840750
H -1.384953 0.619922 -1.287223
H -1.297747 -0.585904 0.869247
H -0.931608 0.920472 1.704948
H -2.485754 0.724148 0.904750
*
