! B97-D3 def2-SVP TightSCF Opt

* xyz 0 1
C -1.072459 2.579684 -0.510846
C -0.839596 1.054737 -0.439437
H -0.742326 4.971821 1.631095
O 0.427331 3.006441 1.358841
C -0.510035 3.334543 0.682705
C 0.632936 0.692297 -0.600362
N -2.496251 2.835315 -0.647157
H -2.701282 3.820286 -0.530865
H -2.822123 2.540774 -1.560145
O -1.137946 4.504383 0.878283
H -0.482838 2.973168 -1.366914
H 1.033562 1.101699 -1.526449
H 0.747305 -0.388399 -0.625004
H 1.209742 1.089834 0.229278
C -1.415921 0.483248 0.853150
H -1.399913 0.628820 -1.280788
H -1.380088 -0.602972 0.831681
H -0.839812 0.830002 1.706937
H -2.446878 0.806344 0.969253
*
