! B97-D3 def2-SVP TightSCF Opt

* xyz 0 1
C -1.071497 2.578755 -0.513883
C -0.838360 1.053600 -0.440607
H -0.738011 4.969991 1.628348
O 0.434448 3.008462 1.348077
C -0.503123 3.336362 0.673493
C 0.633959 0.689949 -0.596955
N -2.497782 2.832682 -0.640890
H -2.703527 3.816344 -0.515699
H -2.826571 2.545448 -1.555382
O -1.135543 4.503843 0.876208
H -0.488482 2.970766 -1.375998
H 1.044117 1.122439 -1.508317
H 0.745137 -0.389835 -0.648364
H 1.204857 1.067028 0.246217
C -1.419756 0.485146 0.852099
H -1.397004 0.626902 -1.282504
H -1.362780 -0.600273 0.843383
H -0.860010 0.852016 1.708051
H -2.456662 0.792398 0.955980
*
