! MP2 def2-SVP TightSCF Opt

* xyz 0 1
C -1.095431 2.582139 -0.516983
C -0.843707 1.059821 -0.429625
H -0.560028 4.998510 1.550987
O 0.596513 3.179394 1.194015
C -0.445204 3.415921 0.604824
C 0.643374 0.699477 -0.516186
N -2.554645 2.842627 -0.554437
H -2.684928 3.849751 -0.428947
H -2.915387 2.606318 -1.476929
O -1.094763 4.584119 0.840990
H -0.665330 2.964705 -1.451118
H 1.137970 1.245984 -1.325279
H 0.762261 -0.370335 -0.720203
H 1.170389 0.905881 0.419839
C -1.470126 0.405920 0.807329
H -1.319085 0.602159 -1.309429
H -1.242458 -0.665472 0.833433
H -1.095486 0.852819 1.733327
H -2.560518 0.502284 0.797647
*
