! B97-D3 def2-SVP TightSCF Opt

* xyz 0 1
C -1.083639 2.572415 -0.532489
C -0.841693 1.062822 -0.441446
H -0.631697 4.919443 1.607585
O 0.526739 3.064937 1.230315
C -0.458817 3.360148 0.603515
C 0.639887 0.705753 -0.542306
N -2.531707 2.831033 -0.582050
H -2.686531 3.825250 -0.447896
H -2.886495 2.586165 -1.500201
O -1.114335 4.509231 0.868778
H -0.598535 2.956126 -1.447543
H 1.108472 1.215437 -1.382203
H 0.758084 -0.366482 -0.692725
H 1.175578 0.977113 0.362913
C -1.450013 0.472977 0.823471
H -1.351260 0.606194 -1.299687
H -1.265168 -0.598483 0.866923
H -1.019612 0.929331 1.711754
H -2.525848 0.632614 0.846547
*
