! MP2 def2-SVP TightSCF SP

* xyz 0 1
C -1.063188 2.578768 -0.517965
C -0.835952 1.054521 -0.441312
H -0.775354 4.946187 1.651451
O 0.403773 2.995503 1.370113
C -0.510101 3.333027 0.673815
C 0.631127 0.674950 -0.613486
N -2.489281 2.834259 -0.653762
H -2.695296 3.816251 -0.522891
H -2.808298 2.555734 -1.574323
O -1.156053 4.491430 0.885350
H -0.473127 2.969820 -1.377470
H 1.040832 1.119605 -1.518356
H 0.728169 -0.404307 -0.686182
H 1.212394 1.029631 0.229917
C -1.406421 0.508246 0.863934
H -1.411277 0.624985 -1.270462
H -1.334022 -0.575327 0.879445
H -0.849198 0.902966 1.708123
H -2.445316 0.805774 0.967316
*
