! xtb goat

* xyzfile 0 1 d-input-coordinates.xyz
