! xtb goat

%pal
  nprocs=9
end

* xyzfile 0 1 e-input-coordinates.xyz
