! MP2 def2-SVP TightSCF SP

* xyz 0 1
C -3.180337 1.071292 -0.012002
C -1.882401 1.852811 -0.272039
H -4.398885 0.965493 1.630727
H -4.474631 2.401352 0.861695
C -2.796276 -0.379445 0.267511
O -1.551808 2.663584 0.726789
H -2.263493 2.567022 1.405859
N -3.838999 1.667992 1.158694
O -1.212865 1.708950 -1.250429
C -3.956076 -1.301030 0.547363
H -3.797110 1.137054 -0.918654
H -2.238834 -0.759213 -0.594198
H -2.117893 -0.395657 1.124752
C -3.775896 -2.355265 1.433278
C -5.194023 -1.153252 -0.061467
H -6.842547 -3.759560 1.313307
H -4.643148 -4.051575 2.395732
C -6.226879 -2.032119 0.212893
H -5.368525 -0.357203 -0.769177
C -6.036122 -3.075756 1.098614
H -7.183404 -1.901151 -0.269265
C -4.803651 -3.237797 1.705941
H -2.819876 -2.489199 1.916300
*
