! B97-D3 def2-SVP TightSCF SP

* xyz 0 1
C -3.193839 1.077469 -0.008619
C -1.892546 1.861373 -0.271973
H -4.341555 0.923596 1.684608
H -4.463611 2.384312 0.948586
C -2.797933 -0.381725 0.237752
O -1.523953 2.622639 0.744341
H -2.198290 2.495431 1.455079
N -3.821778 1.637000 1.187007
O -1.306027 1.810344 -1.311905
C -3.957939 -1.301276 0.527469
H -3.811315 1.147679 -0.914210
H -2.256501 -0.739299 -0.642976
H -2.105987 -0.410193 1.083357
C -3.794506 -2.316895 1.461137
C -5.182750 -1.186163 -0.114672
H -6.849149 -3.747358 1.323831
H -4.674158 -3.977947 2.471953
C -6.216143 -2.060291 0.170210
H -5.341213 -0.417346 -0.855969
C -6.041840 -3.066836 1.101475
H -7.161404 -1.953306 -0.340417
C -4.823227 -3.194308 1.744880
H -2.848014 -2.419569 1.971284
*
