! B97-D3 def2-SVP TightSCF SP

* xyz 0 1
C -3.136152 1.090545 0.000940
C -1.819433 1.841237 -0.257852
H -4.505184 1.098907 1.541354
H -4.437147 2.501151 0.738165
C -2.800105 -0.382545 0.296102
O -1.573244 2.755656 0.717217
H -2.332291 2.678196 1.350327
N -3.840470 1.768977 1.138121
O -1.067313 1.641643 -1.197953
C -3.966365 -1.309709 0.575093
H -3.755276 1.193456 -0.897774
H -2.245069 -0.802803 -0.552266
H -2.111997 -0.414668 1.152652
C -3.757454 -2.422949 1.405473
C -5.230395 -1.141684 -0.008787
H -6.853161 -3.825213 1.316378
H -4.611688 -4.178757 2.318789
C -6.267245 -2.038075 0.266339
H -5.431967 -0.323662 -0.693957
C -6.047696 -3.125285 1.109320
H -7.244608 -1.893453 -0.186676
C -4.790335 -3.322776 1.671755
H -2.779082 -2.600858 1.849467
*
