! MP2 def2-SVP TightSCF SP

* xyz 0 1
C -3.160527 1.066374 -0.007150
C -1.861093 1.838479 -0.264498
H -4.451285 1.009858 1.580128
H -4.470590 2.422109 0.786949
C -2.793422 -0.383156 0.289785
O -1.581400 2.711584 0.711604
H -2.305823 2.606938 1.376852
N -3.846604 1.700377 1.141105
O -1.157772 1.677538 -1.223321
C -3.954246 -1.303462 0.564506
H -3.779027 1.139267 -0.911226
H -2.231522 -0.783357 -0.560072
H -2.118592 -0.398251 1.151085
C -3.763284 -2.387495 1.415955
C -5.201597 -1.134321 -0.025102
H -6.843705 -3.771706 1.309029
H -4.627266 -4.109585 2.343952
C -6.237426 -2.016042 0.244284
H -5.386393 -0.321407 -0.712048
C -6.036397 -3.085313 1.099898
H -7.202136 -1.869699 -0.218497
C -4.793852 -3.273512 1.681137
H -2.799721 -2.547887 1.877873
*
