! MP2 def2-SVP TightSCF Opt

* xyz 0 1
C -3.212348 1.091921 -0.002976
C -1.915443 1.883862 -0.277347
H -4.308042 0.894497 1.722829
H -4.457439 2.375861 1.023629
C -2.804927 -0.375695 0.201756
O -1.484764 2.556305 0.775693
H -2.149082 2.425595 1.494891
N -3.812346 1.618908 1.217126
O -1.345852 1.844266 -1.331106
C -3.959841 -1.296212 0.506099
H -3.842059 1.175628 -0.897707
H -2.288633 -0.712517 -0.701466
H -2.090787 -0.420572 1.028149
C -3.806329 -2.275687 1.481760
C -5.173592 -1.217477 -0.164887
H -6.847696 -3.738813 1.339979
H -4.692794 -3.905846 2.539004
C -6.205753 -2.089576 0.134455
H -5.320855 -0.477426 -0.938002
C -6.041730 -3.059090 1.107777
H -7.141879 -2.010121 -0.398985
C -4.834232 -3.151141 1.779261
H -2.867258 -2.349338 2.012294
*
