! B97-D3 def2-SVP TightSCF Opt

* xyz 0 1
C -3.220355 1.095792 0.014156
C -1.930569 1.892589 -0.277955
H -4.279453 0.857126 1.758861
H -4.429903 2.359792 1.106898
C -2.808142 -0.378032 0.168126
O -1.467497 2.533736 0.783680
H -2.121936 2.400938 1.510685
N -3.787918 1.591645 1.262798
O -1.389456 1.879275 -1.348453
C -3.958935 -1.296587 0.486649
H -3.876217 1.202641 -0.858750
H -2.324875 -0.694880 -0.759877
H -2.067207 -0.446018 0.969156
C -3.819778 -2.239735 1.500520
C -5.158966 -1.249926 -0.212940
H -6.852003 -3.722444 1.352200
H -4.721323 -3.834797 2.599406
C -6.193488 -2.115552 0.098443
H -5.291095 -0.540184 -1.016805
C -6.044622 -3.047218 1.111244
H -7.118708 -2.061766 -0.456910
C -4.850492 -3.108927 1.809749
H -2.890742 -2.290138 2.051347
*
